500
300 300
1 210 791
2 210 543
3 209 669
4 208 809
5 208 285
6 207 107
7 207 384
8 207 22
9 206 389
10 206 39
11 206 365
12 206 255
13 206 466
14 205 139
15 204 512
16 204 608
17 203 440
18 203 967
19 203 641
20 203 788
21 203 408
22 203 831
23 203 938
24 203 263
25 202 1
26 201 185
27 200 515
28 200 713
29 200 688
30 200 538
31 199 182
32 199 700
33 199 800
34 199 143
35 199 167
36 199 645
37 199 461
38 198 564
39 198 313
40 198 757
41 198 680
42 198 748
43 197 39
44 196 761
45 196 747
46 196 90
47 196 903
48 196 68
49 196 524
50 195 463
51 195 441
52 195 531
53 195 963
54 195 317
55 195 730
56 194 442
57 194 442
58 194 158
59 194 949
60 194 577
61 193 951
62 193 23
63 193 950
64 192 383
65 192 109
66 192 835
67 191 1000
68 191 4
69 191 48
70 190 196
71 190 90
72 190 181
73 189 38
74 189 354
75 189 166
76 189 728
77 188 749
78 188 429
79 187 125
80 187 436
81 187 480
82 187 333
83 187 475
84 186 631
85 186 778
86 186 639
87 186 417
88 184 713
89 184 234
90 184 463
91 184 958
92 184 819
93 184 263
94 184 962
95 183 793
96 183 528
97 183 555
98 183 16
99 182 907
100 181 46
101 180 242
102 180 336
103 180 829
104 180 75
105 180 441
106 180 478
107 179 662
108 179 813
109 179 162
110 179 659
111 178 4
112 178 290
113 178 158
114 177 74
115 177 194
116 177 722
117 177 45
118 176 194
119 175 881
120 175 431
121 175 500
122 175 488
123 174 187
124 174 176
125 174 69
126 174 507
127 173 840
128 173 321
129 173 189
130 173 29
131 172 551
132 172 554
133 171 29
134 171 232
135 170 888
136 170 313
137 170 281
138 170 912
139 170 395
140 170 814
141 169 2
142 169 825
143 169 323
144 168 455
145 168 187
146 168 78
147 167 910
148 166 616
149 165 776
150 165 899
151 165 854
152 165 292
153 164 364
154 164 212
155 163 293
156 163 668
157 163 583
158 163 491
159 163 869
160 162 347
161 162 904
162 161 996
163 161 60
164 161 667
165 161 576
166 160 681
167 160 731
168 160 990
169 160 23
170 160 267
171 159 304
172 159 670
173 158 977
174 158 760
175 157 788
176 157 216
177 157 640
178 156 36
179 156 629
180 155 608
181 155 56
182 154 151
183 153 820
184 153 861
185 153 514
186 153 240
187 152 996
188 152 954
189 152 898
190 151 507
191 151 892
192 151 109
193 151 149
194 150 410
195 150 607
196 150 943
197 150 273
198 150 926
199 149 870
200 149 721
201 149 178
202 148 104
203 148 109
204 148 153
205 148 583
206 148 408
207 147 244
208 147 848
209 147 143
210 147 349
211 147 602
212 147 872
213 147 620
214 146 866
215 146 258
216 146 303
217 146 295
218 146 370
219 145 745
220 145 652
221 144 223
222 144 623
223 144 545
224 144 490
225 144 372
226 143 761
227 143 579
228 142 27
229 142 618
230 142 862
231 142 432
232 141 352
233 141 735
234 139 422
235 139 356
236 139 334
237 138 913
238 138 130
239 138 666
240 138 458
241 138 804
242 138 294
243 138 846
244 137 948
245 137 196
246 136 640
247 136 922
248 136 893
249 136 138
250 136 223
251 136 964
252 135 677
253 135 110
254 134 611
255 134 650
256 134 521
257 134 560
258 133 244
259 133 983
260 133 261
261 132 25
262 132 272
263 132 329
264 132 494
265 132 849
266 131 303
267 131 109
268 131 28
269 130 845
270 130 635
271 130 213
272 129 327
273 129 6
274 129 75
275 129 639
276 128 362
277 128 167
278 128 391
279 127 914
280 126 610
281 125 47
282 125 818
283 125 611
284 124 781
285 124 386
286 123 177
287 123 91
288 123 680
289 123 894
290 123 517
291 123 266
292 123 263
293 122 901
294 122 260
295 122 266
296 122 896
297 122 599
298 121 820
299 121 191
300 120 422
301 120 682
302 120 263
303 120 452
304 120 20
305 119 462
306 119 142
307 119 476
308 119 887
309 119 621
310 118 252
311 118 530
312 117 854
313 117 666
314 117 679
315 117 894
316 117 557
317 117 578
318 117 964
319 116 468
320 115 940
321 115 586
322 115 407
323 115 50
324 115 351
325 114 319
326 114 430
327 114 424
328 113 559
329 113 695
330 112 172
331 112 465
332 111 577
333 111 419
334 111 274
335 110 703
336 110 669
337 110 76
338 110 596
339 110 814
340 109 729
341 109 18
342 109 631
343 109 57
344 109 405
345 109 232
346 109 471
347 108 814
348 108 521
349 108 244
350 107 804
351 107 170
352 106 369
353 106 223
354 106 705
355 105 502
356 105 593
357 105 224
358 105 22
359 105 687
360 105 519
361 104 64
362 104 624
363 104 573
364 103 299
365 103 328
366 103 307
367 103 197
368 103 417
369 103 926
370 102 902
371 102 922
372 102 281
373 101 163
374 101 329
375 100 231
376 100 701
377 100 700
378 100 812
379 99 838
380 99 256
381 99 473
382 99 454
383 99 334
384 99 831
385 98 887
386 98 637
387 97 165
388 97 97
389 97 867
390 97 497
391 97 195
392 97 738
393 96 966
394 96 155
395 96 366
396 95 947
397 95 820
398 95 679
399 94 335
400 94 437
401 93 738
402 93 400
403 92 96
404 92 859
405 91 455
406 91 179
407 90 751
408 90 819
409 90 946
410 89 1000
411 89 150
412 88 280
413 88 846
414 87 702
415 87 4
416 87 695
417 86 943
418 86 316
419 86 826
420 85 118
421 85 581
422 85 120
423 85 513
424 85 132
425 85 819
426 84 76
427 84 151
428 84 466
429 84 748
430 84 109
431 84 951
432 84 948
433 83 802
434 83 495
435 83 705
436 83 592
437 82 386
438 82 166
439 82 191
440 81 1
441 81 901
442 81 331
443 81 390
444 81 48
445 80 798
446 79 125
447 79 130
448 79 431
449 78 956
450 77 166
451 77 977
452 77 437
453 77 288
454 77 239
455 76 323
456 75 503
457 75 277
458 75 537
459 74 663
460 74 449
461 74 728
462 73 878
463 73 309
464 73 535
465 72 394
466 72 449
467 71 534
468 71 482
469 70 541
470 70 96
471 70 406
472 69 136
473 69 911
474 69 253
475 68 656
476 68 821
477 68 574
478 68 221
479 67 45
480 67 190
481 66 150
482 66 146
483 65 110
484 64 984
485 64 566
486 64 630
487 63 714
488 63 805
489 63 210
490 63 963
491 62 574
492 62 624
493 61 748
494 61 167
495 60 2
496 60 443
497 60 576
498 60 38
499 60 777
500 60 898
